N = 6;
H = 6;
T = 2;

avail = array3d(1..N, 1..H, 1..T, [6, 2, 3, 1, 5, 4, 3, 7, 7, 2, 3, 6, 0, 8, 8, 1, 0, 10, 4, 6, 0, 6, 5, 10, 4, 3, 1, 10, 8, 4, 8, 9, 4, 10, 4, 6, 3, 7, 10, 9, 6, 0, 10, 1, 0, 10, 4, 3, 3, 3, 6, 10, 4, 7, 3, 6, 3, 8, 7, 2, 10, 4, 5, 10, 2, 3, 9, 2, 9, 4, 9, 7]);

r = array2d(1..H, 1..T, [2, 3, 0, 1, 3, 2, 0, 2, 2, 1, 1, 2]);
